# =========================================================
# Problema: Projeto de rede de especialistas 3 niveis
# Joao Flavio F. Almeida, 	<joao.flavio@dep.ufmg.br>
# Horacio Faria <horaciofaria@gmail.com>
# Leonardo <leomarie@gmail.com>
# Hugo Rodrigues <hugonr@gmail.com>
# Virginia 			<vmmagalhaes@nescon.medicina.ufmg.br>
# Data   : 01/02/2021
# Versao: 12.0: Estado (32 - Espirito Santo)
# ============================================================

data;

param Distmax:=
1 80  # 80
2 120 # + 120
3 200; # + 200

# Minimal population on destination municipality (j) 
param POPmin:=
1	0
# 2	10000
# 3	30000
# 2	2000
# 3	4000
2	13271	# Q1
3	21609	# Q2 
;

# param DurUpper:=
# 1 0.51 
# 2 1.0 
# 3 2.8; 

param DurUpper:=
1 0.51 
# 2 1.0 
# 3 1.5;
2 0.51 
3 1.1;

# Municipios selecionados que já possuem infraestrutura de nível 3
set S3:=
#	co_municipio	#	no_municipio	qtd_realizado
	320520	#	VILA VELHA	1331
	320530	#	VITORIA	1229
	320120	#	CACHOEIRO DE ITAPEMIRIM	926
	320320	#	LINHARES	738
	320150	#	COLATINA	546
;

# CODIGO	REGIAO	ESTADO	LAT	LONG	POPULACAO 2030	CAP	MUNICIPIO
param: I :	RE	ES	lat	lng	POP	INFR	Mun :=
320010	3	32	-20.077800	-41.126100	33133	0	'Afonso_Claudio'
320013	3	32	-18.984600	-40.743700	10411	1	'Aguia_Branca'
320016	3	32	-18.548200	-40.985400	12005	1	'Agua_Doce_Do_Norte'
320020	3	32	-20.758000	-41.538200	32969	0	'Alegre'
320030	3	32	-20.639600	-40.754300	15710	1	'Alfredo_Chaves'
320035	3	32	-19.061800	-41.020900	8411	1	'Alto_Rio_Novo'
320040	3	32	-20.795500	-40.642500	30993	0	'Anchieta'
320050	3	32	-21.152300	-41.569300	8175	0	'Apiaca'
320060	3	32	-19.820000	-40.276400	107105	0	'Aracruz'
320070	3	32	-20.913000	-41.198600	12689	0	'Atilio_Vivacqua'
320080	3	32	-19.521300	-41.010900	33286	0	'Baixo_Guandu'
320090	3	32	-18.754800	-40.896500	47796	0	'Barra_De_Sao_Francisco'
320100	3	32	-18.539500	-40.302500	16159	1	'Boa_Esperanca'
320110	3	32	-21.117300	-41.673100	10688	1	'Bom_Jesus_Do_Norte'
320115	3	32	-20.139500	-41.295400	13354	1	'Brejetuba'
320120	3	32	-20.846200	-41.119800	223609	0	'Cachoeiro_De_Itapemirim'
320130	3	32	-20.263200	-40.416500	408341	0	'Cariacica'
320140	3	32	-20.603300	-41.203100	40248	0	'Castelo'
320150	3	32	-19.549300	-40.626900	131130	0	'Colatina'
320160	3	32	-18.588300	-39.736200	33272	0	'Conceicao_Da_Barra'
320170	3	32	-20.363900	-41.241700	13631	0	'Conceicao_Do_Castelo'
320180	3	32	-20.622900	-41.693700	4679	1	'Divino_De_Sao_Lourenco'
320190	3	32	-20.360300	-40.659400	36359	0	'Domingos_Martins'
320200	3	32	-20.693100	-41.840500	7255	1	'Dores_Do_Rio_Preto'
320210	3	32	-18.370200	-40.836000	24822	0	'Ecoporanga'
320220	3	32	-19.937000	-40.407800	22715	1	'Fundao'
320225	3	32	-19.186400	-40.447300	13520	1	'Governador_Lindenberg'
320230	3	32	-20.766800	-41.673400	33011	0	'Guacui'
320240	3	32	-20.677200	-40.509300	132642	0	'Guarapari'
320245	3	32	-20.234700	-41.508700	27753	0	'Ibatiba'
320250	3	32	-19.836600	-40.373200	13336	1	'Ibiracu'
320255	3	32	-20.546600	-41.666700	9620	1	'Ibitirama'
320260	3	32	-20.791300	-40.813200	14825	0	'Iconha'
320265	3	32	-20.350100	-41.644400	14265	1	'Irupi'
320270	3	32	-19.801800	-40.860100	15217	1	'Itaguacu'
320280	3	32	-21.009500	-40.830700	36705	0	'Itapemirim'
320290	3	32	-19.875000	-40.875300	11453	0	'Itarana'
320300	3	32	-20.353100	-41.533400	31310	0	'Iuna'
320305	3	32	-18.907000	-40.075900	32253	1	'Jaguare'
320310	3	32	-20.799400	-41.394800	12666	0	'Jeronimo_Monteiro'
320313	3	32	-19.757700	-40.386000	17919	0	'Joao_Neiva'
320316	3	32	-19.899400	-41.062100	11822	0	'Laranja_Da_Terra'
320320	3	32	-19.394600	-40.064300	183746	0	'Linhares'
320330	3	32	-18.859400	-41.124000	16387	1	'Mantenopolis'
320332	3	32	-21.039800	-40.838400	41101	1	'Marataizes'
320334	3	32	-20.415900	-40.670000	17757	1	'Marechal_Floriano'
320335	3	32	-19.411400	-40.545600	13698	1	'Marilandia'
320340	3	32	-21.062800	-41.361500	28248	0	'Mimoso_Do_Sul'
320350	3	32	-18.130300	-40.366800	20244	0	'Montanha'
320360	3	32	-18.096500	-40.520000	5988	1	'Mucurici'
320370	3	32	-20.465200	-41.415600	18996	0	'Muniz_Freire'
320380	3	32	-20.950900	-41.346000	16577	0	'Muqui'
320390	3	32	-18.715000	-40.405300	53690	0	'Nova_Venecia'
320400	3	32	-19.222900	-40.853400	24870	0	'Pancas'
320405	3	32	-18.300400	-39.957400	28023	0	'Pedro_Canario'
320410	3	32	-18.414100	-40.217100	28865	0	'Pinheiros'
320420	3	32	-20.833400	-40.726800	23041	0	'Piuma'
320425	3	32	-18.125300	-40.545800	8395	1	'Ponto_Belo'
320430	3	32	-21.096400	-41.046800	12390	1	'Presidente_Kennedy'
320435	3	32	-19.271900	-40.336600	20502	1	'Rio_Bananal'
320440	3	32	-20.855600	-40.938800	12531	1	'Rio_Novo_Do_Sul'
320450	3	32	-20.099900	-40.527000	13266	0	'Santa_Leopoldina'
320455	3	32	-20.025300	-40.743900	42979	0	'Santa_Maria_De_Jetiba'
320460	3	32	-19.936300	-40.597900	25229	0	'Santa_Teresa'
320465	3	32	-19.145200	-40.628100	9264	1	'Sao_Domingos_Do_Norte'
320470	3	32	-19.018200	-40.536500	40296	0	'Sao_Gabriel_Da_Palha'
320480	3	32	-21.027400	-41.663600	11396	0	'Sao_Jose_Do_Calcado'
320490	3	32	-18.721400	-39.857900	138639	0	'Sao_Mateus'
320495	3	32	-19.741100	-40.652600	13286	1	'Sao_Roque_Do_Canaa'
320500	3	32	-20.121000	-40.307400	547469	0	'Serra'
320501	3	32	-19.189700	-40.097400	31762	1	'Sooretama'
320503	3	32	-20.669000	-41.017900	22873	0	'Vargem_Alta'
320506	3	32	-20.327000	-41.135500	26748	0	'Venda_Nova_Do_Imigrante'
320510	3	32	-20.382500	-40.493300	82999	1	'Viana'
320515	3	32	-18.609100	-40.609000	9891	1	'Vila_Pavao'
320517	3	32	-18.995800	-40.384900	15194	1	'Vila_Valerio'
320520	3	32	-20.341700	-40.287500	524399	0	'Vila_Velha'
320530	3	32	-20.315500	-40.312800	386408	0	'Vitoria'




# CODIGO	REGIAO	ESTADO	LAT	LONG	POPULACAO 2018	CAP	MUNICIPIO
# 320010	3	32	-20.08	-41.13	30720	0	'Afonso_Claudio'
# 320013	3	32	-18.99	-40.74	9653	0	'Aguia_Branca'
# 320016	3	32	-18.55	-40.98	11131	0	'Agua_Doce_Do_Norte'
# 320020	3	32	-20.76	-41.54	30568	0	'Alegre'
# 320030	3	32	-20.63	-40.76	14566	0	'Alfredo_Chaves'
# 320035	3	32	-19.06	-41.02	7798	0	'Alto_Rio_Novo'
# 320040	3	32	-20.81	-40.65	28736	0	'Anchieta'
# 320050	3	32	-21.16	-41.56	7580	0	'Apiaca'
# 320060	3	32	-19.82	-40.28	99305	0	'Aracruz'
# 320070	3	32	-20.92	-41.19	11765	0	'Atilio_Vivacqua'
# 320080	3	32	-19.51	-41.01	30862	0	'Baixo_Guandu'
# 320090	3	32	-18.76	-40.89	44315	0	'Barra_De_Sao_Francisco'
# 320100	3	32	-18.54	-40.30	14982	0	'Boa_Esperanca'
# 320110	3	32	-21.13	-41.68	9910	0	'Bom_Jesus_Do_Norte'
# 320115	3	32	-20.16	-41.29	12381	0	'Brejetuba'
# 320120	3	32	-20.85	-41.11	207324	0	'Cachoeiro_De_Itapemirim'
# 320130	3	32	-20.29	-40.39	378603	0	'Cariacica'
# 320140	3	32	-20.60	-41.20	37317	0	'Castelo'
# 320150	3	32	-19.54	-40.63	121580	0	'Colatina'
# 320160	3	32	-18.60	-39.73	30849	0	'Conceicao_Da_Barra'
# 320170	3	32	-20.37	-41.25	12638	0	'Conceicao_Do_Castelo'
# 320180	3	32	-20.62	-41.68	4338	0	'Divino_De_Sao_Lourenco'
# 320190	3	32	-20.36	-40.66	33711	0	'Domingos_Martins'
# 320200	3	32	-20.69	-41.85	6727	0	'Dores_Do_Rio_Preto'
# 320210	3	32	-18.38	-40.83	23014	0	'Ecoporanga'
# 320220	3	32	-19.93	-40.40	21061	0	'Fundao'
# 320225	3	32	-19.25	-40.46	12535	0	'Governador_Lindenberg'
# 320230	3	32	-20.78	-41.68	30607	0	'Guacui'
# 320240	3	32	-20.67	-40.50	122982	0	'Guarapari'
# 320245	3	32	-20.23	-41.51	25732	0	'Ibatiba'
# 320250	3	32	-19.83	-40.37	12365	0	'Ibiracu'
# 320255	3	32	-20.54	-41.66	8919	0	'Ibitirama'
# 320260	3	32	-20.80	-40.81	13745	0	'Iconha'
# 320265	3	32	-20.35	-41.65	13226	0	'Irupi'
# 320270	3	32	-19.80	-40.86	14109	0	'Itaguacu'
# 320280	3	32	-21.01	-40.84	34032	0	'Itapemirim'
# 320290	3	32	-19.87	-40.88	10619	0	'Itarana'
# 320300	3	32	-20.35	-41.53	29030	0	'Iuna'
# 320305	3	32	-18.90	-40.09	29904	0	'Jaguare'
# 320310	3	32	-20.80	-41.40	11744	0	'Jeronimo_Monteiro'
# 320313	3	32	-19.75	-40.38	16614	0	'Joao_Neiva'
# 320316	3	32	-19.90	-41.06	10961	0	'Laranja_Da_Terra'
# 320320	3	32	-19.40	-40.07	170364	0	'Linhares'
# 320330	3	32	-18.86	-41.12	15194	0	'Mantenopolis'
# 320332	3	32	-21.04	-40.83	38108	0	'Marataizes'
# 320334	3	32	-20.43	-40.68	16464	0	'Marechal_Floriano'
# 320335	3	32	-19.41	-40.55	12700	0	'Marilandia'
# 320340	3	32	-21.07	-41.36	26191	0	'Mimoso_Do_Sul'
# 320350	3	32	-18.13	-40.36	18770	0	'Montanha'
# 320360	3	32	-18.10	-40.52	5552	0	'Mucurici'
# 320370	3	32	-20.46	-41.42	17613	0	'Muniz_Freire'
# 320380	3	32	-20.95	-41.35	15370	0	'Muqui'
# 320390	3	32	-18.71	-40.40	49780	0	'Nova_Venecia'
# 320400	3	32	-19.22	-40.86	23059	0	'Pancas'
# 320405	3	32	-18.30	-39.95	25982	0	'Pedro_Canario'
# 320410	3	32	-18.41	-40.22	26763	0	'Pinheiros'
# 320420	3	32	-20.84	-40.73	21363	0	'Piuma'
# 320425	3	32	-18.13	-40.54	7784	0	'Ponto_Belo'
# 320430	3	32	-21.10	-41.05	11488	0	'Presidente_Kennedy'
# 320435	3	32	-19.28	-40.32	19009	0	'Rio_Bananal'
# 320440	3	32	-20.86	-40.94	11618	0	'Rio_Novo_Do_Sul'
# 320450	3	32	-20.10	-40.53	12300	0	'Santa_Leopoldina'
# 320455	3	32	-20.03	-40.74	39849	0	'Santa_Maria_De_Jetiba'
# 320460	3	32	-19.94	-40.60	23392	0	'Santa_Teresa'
# 320465	3	32	-19.15	-40.62	8589	0	'Sao_Domingos_Do_Norte'
# 320470	3	32	-19.02	-40.53	37361	0	'Sao_Gabriel_Da_Palha'
# 320480	3	32	-21.03	-41.66	10566	0	'Sao_Jose_Do_Calcado'
# 320490	3	32	-18.72	-39.86	128542	0	'Sao_Mateus'
# 320495	3	32	-19.73	-40.64	12318	0	'Sao_Roque_Do_Canaa'
# 320500	3	32	-20.16	-40.28	507598	0	'Serra'
# 320501	3	32	-19.19	-40.10	29449	0	'Sooretama'
# 320503	3	32	-20.67	-41.01	21207	0	'Vargem_Alta'
# 320506	3	32	-20.33	-41.13	24800	0	'Venda_Nova_Do_Imigrante'
# 320510	3	32	-20.39	-40.50	76954	0	'Viana'
# 320515	3	32	-18.62	-40.60	9171	0	'Vila_Pavao'
# 320517	3	32	-18.99	-40.39	14087	0	'Vila_Valerio'
# 320520	3	32	-20.34	-40.29	486208	0	'Vila_Velha'
# 320530	3	32	-20.32	-40.32	358267	1	'Vitoria'
;

end;
